nMembers=10;
MM=[
	[0 4 1 4 8 4 3 4 1 8]
	[8 0 5 2 8 4 6 7 10 4]
	[1 9 0 3 3 9 1 1 10 7]
	[10 9 5 0 8 3 4 7 7 1]
	[10 3 1 7 0 6 4 3 7 9]
	[3 8 10 3 7 0 9 2 8 4]
	[9 1 3 4 5 2 0 4 10 1]
	[2 4 2 3 2 10 7 0 7 4]
	[7 5 5 10 2 8 9 3 0 4]
	[5 6 4 1 5 4 7 2 5 0]
];
